g3 0 1 0	# problem kall_diffcircles_7
 18 40 1 0 2	# vars, constraints, objectives, ranges, eqns
 22 0	# nonlinear constraints, objectives
 0 0	# network constraints: nonlinear, linear
 16 0 0	# nonlinear vars in constraints, objectives, both
 0 0 0 1	# linear network variables; functions; arith, flags
 0 0 0 0 0	# discrete variables: binary, integer, nonlinear (b,c,o)
 121 1	# nonzeros in Jacobian, gradients
 3 6	# max name lengths: constraints, variables
 0 0 0 0 0	# common exprs: b,c,o,c1,o1
b
0 1.2 6.8
0 1.2 2.8
0 .6 7.4
0 .6 3.4
0 .8 7.2
0 .8 3.2
0 1.7 6.3
0 1.7 2.3
0 .5 7.5
0 .5 3.5
0 1.3 6.7
0 1.3 2.7
0 .6 7.4
0 .6 3.4
0 0 8
0 0 4
0 2.89 32
0 0 32
x15
0 1.2
1 1.2
2 .6
3 .6
4 .8
5 .8
6 1.7
7 1.7
8 .5
9 .5
10 1.3
11 1.3
12 .6
13 .6
16 2.89
r
4 0
2 3.24
2 4
2 8.41
2 2.89
2 6.25
2 3.24
2 1.96
2 5.29
2 1.21
2 3.61
2 1.44
2 6.25
2 1.69
2 4.41
2 1.96
2 4.84
2 9
2 5.29
2 3.24
2 1.21
2 3.61
4 -23.9703519468901
1 -1.2
1 -1.2
1 -.6
1 -.6
1 -.8
1 -.8
1 -1.7
1 -1.7
1 -.5
1 -.5
1 -1.3
1 -1.3
1 -.6
1 -.6
1 4
1 2
1 0
C0
o16
o2
v14
v15
C1
o0
o2
o1
v0
v2
o1
v0
v2
o2
o1
v1
v3
o1
v1
v3
C2
o0
o2
o1
v0
v4
o1
v0
v4
o2
o1
v1
v5
o1
v1
v5
C3
o0
o2
o1
v0
v6
o1
v0
v6
o2
o1
v1
v7
o1
v1
v7
C4
o0
o2
o1
v0
v8
o1
v0
v8
o2
o1
v1
v9
o1
v1
v9
C5
o0
o2
o1
v0
v10
o1
v0
v10
o2
o1
v1
v11
o1
v1
v11
C6
o0
o2
o1
v0
v12
o1
v0
v12
o2
o1
v1
v13
o1
v1
v13
C7
o0
o2
o1
v2
v4
o1
v2
v4
o2
o1
v3
v5
o1
v3
v5
C8
o0
o2
o1
v2
v6
o1
v2
v6
o2
o1
v3
v7
o1
v3
v7
C9
o0
o2
o1
v2
v8
o1
v2
v8
o2
o1
v3
v9
o1
v3
v9
C10
o0
o2
o1
v2
v10
o1
v2
v10
o2
o1
v3
v11
o1
v3
v11
C11
o0
o2
o1
v2
v12
o1
v2
v12
o2
o1
v3
v13
o1
v3
v13
C12
o0
o2
o1
v4
v6
o1
v4
v6
o2
o1
v5
v7
o1
v5
v7
C13
o0
o2
o1
v4
v8
o1
v4
v8
o2
o1
v5
v9
o1
v5
v9
C14
o0
o2
o1
v4
v10
o1
v4
v10
o2
o1
v5
v11
o1
v5
v11
C15
o0
o2
o1
v4
v12
o1
v4
v12
o2
o1
v5
v13
o1
v5
v13
C16
o0
o2
o1
v6
v8
o1
v6
v8
o2
o1
v7
v9
o1
v7
v9
C17
o0
o2
o1
v6
v10
o1
v6
v10
o2
o1
v7
v11
o1
v7
v11
C18
o0
o2
o1
v6
v12
o1
v6
v12
o2
o1
v7
v13
o1
v7
v13
C19
o0
o2
o1
v8
v10
o1
v8
v10
o2
o1
v9
v11
o1
v9
v11
C20
o0
o2
o1
v8
v12
o1
v8
v12
o2
o1
v9
v13
o1
v9
v13
C21
o0
o2
o1
v10
v12
o1
v10
v12
o2
o1
v11
v13
o1
v11
v13
C22
n0
C23
n0
C24
n0
C25
n0
C26
n0
C27
n0
C28
n0
C29
n0
C30
n0
C31
n0
C32
n0
C33
n0
C34
n0
C35
n0
C36
n0
C37
n0
C38
n0
C39
n0
O0 0
n0
k17
8
16
24
31
38
45
52
59
66
73
80
87
95
102
110
118
120
J0 3
14 0
15 0
16 1
J1 4
0 0
1 0
2 0
3 0
J2 4
0 0
1 0
4 0
5 0
J3 4
0 0
1 0
6 0
7 0
J4 4
0 0
1 0
8 0
9 0
J5 4
0 0
1 0
10 0
11 0
J6 4
0 0
1 0
12 0
13 0
J7 4
2 0
3 0
4 0
5 0
J8 4
2 0
3 0
6 0
7 0
J9 4
2 0
3 0
8 0
9 0
J10 4
2 0
3 0
10 0
11 0
J11 4
2 0
3 0
12 0
13 0
J12 4
4 0
5 0
6 0
7 0
J13 4
4 0
5 0
8 0
9 0
J14 4
4 0
5 0
10 0
11 0
J15 4
4 0
5 0
12 0
13 0
J16 4
6 0
7 0
8 0
9 0
J17 4
6 0
7 0
10 0
11 0
J18 4
6 0
7 0
12 0
13 0
J19 4
8 0
9 0
10 0
11 0
J20 4
8 0
9 0
12 0
13 0
J21 4
10 0
11 0
12 0
13 0
J22 2
16 -1
17 1
J23 2
0 1
14 -1
J24 2
1 1
15 -1
J25 2
2 1
14 -1
J26 2
3 1
15 -1
J27 2
4 1
14 -1
J28 2
5 1
15 -1
J29 2
6 1
14 -1
J30 2
7 1
15 -1
J31 2
8 1
14 -1
J32 2
9 1
15 -1
J33 2
10 1
14 -1
J34 2
11 1
15 -1
J35 2
12 1
14 -1
J36 2
13 1
15 -1
J37 1
0 1
J38 1
1 1
J39 2
2 1
12 -1
G0 1
17 1
